20
1 0 13
3 0 7
3 1 4
4 0 6
5 0 3
5 1 4
5 4 10
6 1 13
6 2 8
6 5 13
7 0 7
7 1 2
7 6 10
8 0 12
8 3 1
8 4 5
8 5 11
9 0 8
9 1 3
9 8 7
10 0 13
10 1 6
10 2 8
10 3 1
10 4 1
10 5 8
11 1 8
11 2 4
11 3 6
11 5 2
11 7 7
11 8 13
11 10 2
12 0 11
12 1 13
12 2 9
12 10 11
12 11 9
13 0 1
13 1 13
13 2 13
13 3 13
13 4 12
13 5 5
13 7 6
13 9 11
13 10 11
13 12 5
14 1 7
14 2 7
14 4 8
14 5 9
15 3 10
15 4 7
15 8 12
15 9 1
15 10 3
15 11 12
15 13 2
15 14 2
16 0 9
16 3 2
16 5 11
16 7 10
16 11 10
16 12 6
16 13 3
16 15 1
17 1 13
17 2 5
17 3 13
17 5 8
17 8 7
17 10 2
17 14 7
17 16 3
18 1 9
18 3 5
18 5 11
18 7 1
18 9 9
18 12 5
18 14 8
18 16 13
19 1 11
19 4 10
19 6 12
19 7 9
19 8 10
19 10 8
19 11 12
19 14 1
19 17 12
19 18 12
